NAME: random-59-16161
TYPE: TSP
COMMENT: size=59 seed=16161
DIMENSION: 120
EDGE_WEIGHT_TYPE: EUC_2D
NODE_COORD_SECTION
+0 927 214
-0 927 214
+1 60 706
-1 864 121
+2 837 214
-2 381 647
+3 649 736
-3 546 663
+4 285 141
-4 428 772
+5 121 803
-5 3 985
+6 82 8
-6 497 909
+7 242 778
-7 600 887
+8 505 738
-8 345 225
+9 691 61
-9 867 293
+10 863 126
-10 607 518
+11 822 367
-11 779 492
+12 905 833
-12 772 793
+13 214 10
-13 66 460
+14 250 527
-14 959 617
+15 102 235
-15 468 579
+16 546 332
-16 550 186
+17 256 636
-17 101 365
+18 616 197
-18 298 319
+19 214 873
-19 443 500
+20 949 312
-20 637 139
+21 180 817
-21 899 263
+22 267 58
-22 372 153
+23 521 137
-23 928 989
+24 903 704
-24 774 873
+25 760 803
-25 504 301
+26 909 652
-26 848 419
+27 195 959
-27 16 20
+28 531 610
-28 829 602
+29 308 853
-29 998 103
+30 770 938
-30 578 623
+31 797 111
-31 614 911
+32 785 125
-32 564 326
+33 639 55
-33 442 79
+34 723 184
-34 648 806
+35 198 111
-35 229 259
+36 699 108
-36 763 856
+37 57 548
-37 639 574
+38 3 843
-38 221 560
+39 120 332
-39 943 520
+40 568 213
-40 616 222
+41 992 697
-41 296 19
+42 62 717
-42 746 570
+43 60 31
-43 128 102
+44 967 198
-44 871 841
+45 729 14
-45 561 547
+46 210 719
-46 502 702
+47 129 556
-47 632 976
+48 141 151
-48 520 884
+49 137 196
-49 619 903
+50 586 339
-50 107 428
+51 633 490
-51 356 802
+52 572 840
-52 993 665
+53 8 739
-53 526 416
+54 908 251
-54 579 349
+55 542 600
-55 106 645
+56 224 732
-56 584 57
+57 941 450
-57 921 359
+58 4 321
-58 689 146
+59 26 839
-59 79 710
PRECEDENCE_SECTION
+0 -0
+1 -1
+2 -2
+3 -3
+4 -4
+5 -5
+6 -6
+7 -7
+8 -8
+9 -9
+10 -10
+11 -11
+12 -12
+13 -13
+14 -14
+15 -15
+16 -16
+17 -17
+18 -18
+19 -19
+20 -20
+21 -21
+22 -22
+23 -23
+24 -24
+25 -25
+26 -26
+27 -27
+28 -28
+29 -29
+30 -30
+31 -31
+32 -32
+33 -33
+34 -34
+35 -35
+36 -36
+37 -37
+38 -38
+39 -39
+40 -40
+41 -41
+42 -42
+43 -43
+44 -44
+45 -45
+46 -46
+47 -47
+48 -48
+49 -49
+50 -50
+51 -51
+52 -52
+53 -53
+54 -54
+55 -55
+56 -56
+57 -57
+58 -58
+59 -59
EOF
